certificates/rado_a9_c14_N40.cnf
c Rad2 upper bound instance: x1 + 9*x2 - x3 = 14, interval [1,40]
p cnf 40 250
1 2 5 0
-1 -2 -5 0
1 3 14 0
-1 -3 -14 0
1 4 23 0
-1 -4 -23 0
1 5 32 0
-1 -5 -32 0
2 6 0
-2 -6 0
2 3 15 0
-2 -3 -15 0
2 4 24 0
-2 -4 -24 0
2 5 33 0
-2 -5 -33 0
2 3 7 0
-2 -3 -7 0
3 16 0
-3 -16 0
3 4 25 0
-3 -4 -25 0
3 5 34 0
-3 -5 -34 0
2 4 8 0
-2 -4 -8 0
3 4 17 0
-3 -4 -17 0
4 26 0
-4 -26 0
4 5 35 0
-4 -5 -35 0
2 5 9 0
-2 -5 -9 0
3 5 18 0
-3 -5 -18 0
4 5 27 0
-4 -5 -27 0
5 36 0
-5 -36 0
1 6 0
-1 -6 0
2 6 10 0
-2 -6 -10 0
3 6 19 0
-3 -6 -19 0
4 6 28 0
-4 -6 -28 0
5 6 37 0
-5 -6 -37 0
1 2 7 0
-1 -2 -7 0
2 7 11 0
-2 -7 -11 0
3 7 20 0
-3 -7 -20 0
4 7 29 0
-4 -7 -29 0
5 7 38 0
-5 -7 -38 0
1 3 8 0
-1 -3 -8 0
2 8 12 0
-2 -8 -12 0
3 8 21 0
-3 -8 -21 0
4 8 30 0
-4 -8 -30 0
5 8 39 0
-5 -8 -39 0
1 4 9 0
-1 -4 -9 0
2 9 13 0
-2 -9 -13 0
3 9 22 0
-3 -9 -22 0
4 9 31 0
-4 -9 -31 0
5 9 40 0
-5 -9 -40 0
1 5 10 0
-1 -5 -10 0
2 10 14 0
-2 -10 -14 0
3 10 23 0
-3 -10 -23 0
4 10 32 0
-4 -10 -32 0
1 6 11 0
-1 -6 -11 0
2 11 15 0
-2 -11 -15 0
3 11 24 0
-3 -11 -24 0
4 11 33 0
-4 -11 -33 0
1 7 12 0
-1 -7 -12 0
2 12 16 0
-2 -12 -16 0
3 12 25 0
-3 -12 -25 0
4 12 34 0
-4 -12 -34 0
1 8 13 0
-1 -8 -13 0
2 13 17 0
-2 -13 -17 0
3 13 26 0
-3 -13 -26 0
4 13 35 0
-4 -13 -35 0
1 9 14 0
-1 -9 -14 0
2 14 18 0
-2 -14 -18 0
3 14 27 0
-3 -14 -27 0
4 14 36 0
-4 -14 -36 0
1 10 15 0
-1 -10 -15 0
2 15 19 0
-2 -15 -19 0
3 15 28 0
-3 -15 -28 0
4 15 37 0
-4 -15 -37 0
1 11 16 0
-1 -11 -16 0
2 16 20 0
-2 -16 -20 0
3 16 29 0
-3 -16 -29 0
4 16 38 0
-4 -16 -38 0
1 12 17 0
-1 -12 -17 0
2 17 21 0
-2 -17 -21 0
3 17 30 0
-3 -17 -30 0
4 17 39 0
-4 -17 -39 0
1 13 18 0
-1 -13 -18 0
2 18 22 0
-2 -18 -22 0
3 18 31 0
-3 -18 -31 0
4 18 40 0
-4 -18 -40 0
1 14 19 0
-1 -14 -19 0
2 19 23 0
-2 -19 -23 0
3 19 32 0
-3 -19 -32 0
1 15 20 0
-1 -15 -20 0
2 20 24 0
-2 -20 -24 0
3 20 33 0
-3 -20 -33 0
1 16 21 0
-1 -16 -21 0
2 21 25 0
-2 -21 -25 0
3 21 34 0
-3 -21 -34 0
1 17 22 0
-1 -17 -22 0
2 22 26 0
-2 -22 -26 0
3 22 35 0
-3 -22 -35 0
1 18 23 0
-1 -18 -23 0
2 23 27 0
-2 -23 -27 0
3 23 36 0
-3 -23 -36 0
1 19 24 0
-1 -19 -24 0
2 24 28 0
-2 -24 -28 0
3 24 37 0
-3 -24 -37 0
1 20 25 0
-1 -20 -25 0
2 25 29 0
-2 -25 -29 0
3 25 38 0
-3 -25 -38 0
1 21 26 0
-1 -21 -26 0
2 26 30 0
-2 -26 -30 0
3 26 39 0
-3 -26 -39 0
1 22 27 0
-1 -22 -27 0
2 27 31 0
-2 -27 -31 0
3 27 40 0
-3 -27 -40 0
1 23 28 0
-1 -23 -28 0
2 28 32 0
-2 -28 -32 0
1 24 29 0
-1 -24 -29 0
2 29 33 0
-2 -29 -33 0
1 25 30 0
-1 -25 -30 0
2 30 34 0
-2 -30 -34 0
1 26 31 0
-1 -26 -31 0
2 31 35 0
-2 -31 -35 0
1 27 32 0
-1 -27 -32 0
2 32 36 0
-2 -32 -36 0
1 28 33 0
-1 -28 -33 0
2 33 37 0
-2 -33 -37 0
1 29 34 0
-1 -29 -34 0
2 34 38 0
-2 -34 -38 0
1 30 35 0
-1 -30 -35 0
2 35 39 0
-2 -35 -39 0
1 31 36 0
-1 -31 -36 0
2 36 40 0
-2 -36 -40 0
1 32 37 0
-1 -32 -37 0
1 33 38 0
-1 -33 -38 0
1 34 39 0
-1 -34 -39 0
1 35 40 0
-1 -35 -40 0
