certificates/rado_a9_c14_N40.drat
2 5 0
d 2 1 5 0
-36 -40 0
6 -5 0
-5 -40 0
d -9 -5 -40 0
-40 0
-5 0
36 0
2 0
9 0
-32 0
-6 0
-13 0
1 0
37 0
-7 0
-31 0
-14 0
-4 0
-33 0
38 0
26 0
35 0
27 0
28 0
29 0
10 0
11 0
18 0
-34 0
-30 0
-21 0
-22 0
-39 0
-23 0
-24 0
-25 0
-15 0
-16 0
3 0
12 0
8 0
17 0
0
